50, 62425
2551, 262
2552, 950
2553, 899
2554, 730
2555, 203
2556, 922
2557, 360
2558, 503
2559, 665
2560, 436
2561, 817
2562, 271
2563, 900
2564, 228
2565, 378
2566, 460
2567, 252
2568, 730
2569, 492
2570, 614
2571, 289
2572, 299
2573, 999
2574, 91
2575, 517
2576, 298
2577, 368
2578, 215
2579, 725
2580, 799
2581, 948
2582, 940
2583, 272
2584, 643
2585, 963
2586, 859
2587, 814
2588, 561
2589, 781
2590, 777
2591, 969
2592, 415
2593, 264
2594, 547
2595, 983
2596, 290
2597, 951
2598, 553
2599, 21
2600, 645
